networks/zoo_134_2653/zoo_134_2653-lower.txt
Number of groups: 60
Flow 1: {1 8 0} {8 35 0} {35 63 0} {63 62 0} {59 3 0} {3 70 0} 
Flow 1: {62 57 0} {57 59 0} Flow 2: {63 35 0} {35 8 0} {8 1 0} {1 68 0} 
Flow 2: {3 59 0} {59 57 0} {57 62 0} {62 63 0} Flow 3: {63 2 0} {2 69 0} 
Flow 4: {3 4 0} {4 71 0} 
Flow 5: {63 11 0} {11 5 0} {5 72 0} 
Flow 6: {35 7 0} {7 74 0} 
Flow 7: {8 75 0} 
Flow 8: {3 58 0} {58 66 0} {66 67 0} {67 65 0} {42 33 0} {33 10 0} {10 77 0} 
Flow 8: {65 64 0} {64 50 0} {50 17 0} {17 18 0} {18 42 0} Flow 9: {11 78 0} 
Flow 10: {5 12 0} {12 79 0} 
Flow 11: {10 13 0} {13 80 0} 
Flow 12: {12 15 0} {15 31 0} {31 29 0} {29 16 0} {16 14 0} {14 81 0} 
Flow 13: {15 82 0} 
Flow 14: {16 83 0} 
Flow 15: {17 84 0} 
Flow 16: {18 85 0} 
Flow 17: {67 54 0} {54 48 0} {48 19 0} {19 86 0} 
Flow 18: {19 20 0} {20 87 0} 
Flow 19: {20 21 0} {21 88 0} 
Flow 20: {18 39 0} {39 38 0} {38 34 0} {34 22 0} {22 89 0} 
Flow 21: {21 25 0} {25 92 0} 
Flow 22: {17 26 0} {26 93 0} 
Flow 23: {10 27 0} {27 94 0} 
Flow 24: {29 96 0} 
Flow 25: {15 30 0} {30 97 0} 
Flow 26: {31 98 0} 
Flow 27: {63 32 0} {32 99 0} 
Flow 28: {33 100 0} 
Flow 29: {34 101 0} 
Flow 30: {35 102 0} 
Flow 31: {32 36 0} {36 103 0} 
Flow 32: {38 105 0} 
Flow 33: {39 106 0} 
Flow 34: {18 43 0} {43 40 0} {40 107 0} 
Flow 35: {40 41 0} {41 108 0} 
Flow 36: {42 109 0} 
Flow 37: {43 110 0} 
Flow 38: {31 44 0} {44 111 0} 
Flow 39: {42 45 0} {45 112 0} 
Flow 40: {5 46 0} {46 113 0} 
Flow 41: {55 47 0} {47 114 0} 
Flow 41: {54 55 0} Flow 42: {48 115 0} 
Flow 43: {5 6 0} {6 49 0} {49 116 0} 
Flow 44: {50 117 0} 
Flow 45: {50 51 0} {51 118 0} 
Flow 46: {47 52 0} {52 119 0} 
Flow 47: {3 53 0} {53 120 0} 
Flow 48: {54 121 0} 
Flow 49: {55 122 0} 
Flow 50: {12 56 0} {56 123 0} 
Flow 51: {57 124 0} 
Flow 52: {58 125 0} 
Flow 53: {59 126 0} 
Flow 54: {3 60 0} {60 127 0} 
Flow 55: {62 129 0} 
Flow 56: {63 130 0} 
Flow 57: {64 131 0} 
Flow 58: {65 132 0} 
Flow 59: {66 133 0} 
Flow 60: {67 134 0} 
Flow 61: {4 3 0} Flow 100: {5 11 0} {11 63 0} Flow 101: {31 42 0} Flow 102: {16 13 0} Flow 104: {2 64 0} Flow 105: {42 18 0} Flow 108: {64 65 0} {65 67 0} Flow 112: {59 66 0} Flow 114: {6 5 0} Flow 118: {5 8 0} Flow 127: {26 25 0} {25 21 0} {21 20 0} Flow 133: {49 56 0} {56 30 0} Flow 139: {35 36 0} Flow 148: {51 52 0} {52 47 0} Flow 157: {62 61 0} {61 60 0} Flow 166: {8 5 0} Flow 181: {36 32 0} Flow 202: {9 46 0} {46 5 0} Flow 238: {10 33 0} {33 42 0} {42 31 0} {31 15 0} {15 12 0} {12 5 0} Flow 239: {43 18 0} {18 17 0} {17 50 0} {50 64 0} {64 2 0} {33 43 0} Flow 240: {67 66 0} {66 58 0} {58 3 0} Flow 248: {13 16 0} Flow 253: {20 19 0} Flow 256: {41 24 0} {24 22 0} Flow 259: {16 29 0} Flow 262: {2 63 0} Flow 273: {33 45 0} {45 44 0} Flow 278: {56 49 0} Flow 283: {47 55 0} Flow 287: {66 59 0} Flow 406: {13 10 0} Flow 409: {29 31 0} Flow 450: {14 16 0} Flow 665: {19 48 0} {48 54 0} {54 67 0} Flow 670: {25 26 0} {26 17 0} Flow 702: {52 51 0} Flow 771: {22 34 0} {34 38 0} {38 39 0} {39 18 0} Flow 773: {22 24 0} {24 41 0} {41 40 0} {40 43 0} {43 33 0} Flow 798: {23 34 0} Flow 991: {27 10 0} Flow 1032: {28 27 0} Flow 1133: {30 15 0} Flow 1185: {32 63 0} Flow 1188: {32 37 0} {37 46 0} Flow 1189: {36 35 0} Flow 1467: {37 36 0} Flow 1468: {37 32 0} Flow 1735: {44 31 0} Flow 1740: {44 45 0} {45 33 0} Flow 1789: {45 42 0} Flow 1871: {46 37 0} Flow 1903: {51 50 0} Flow 1904: {55 54 0} Flow 1991: {49 6 0} Flow 1996: {56 12 0} Flow 2203: {53 3 0} Flow 2443: {60 3 0} Flow 2444: {60 61 0} {61 62 0} Time taken running everything: 1 seconds
