networks/zoo_134_2653/zoo_134_2653-lower.sol
<?xml version = "1.0" encoding="UTF-8" standalone="yes"?>
<CPLEXSolution version="1.2">
 <header
   problemName="networks/zoo_134_2653/zoo_134_2653-lower.lp"
   solutionName="incumbent"
   solutionIndex="-1"
   objectiveValue="67"
   solutionTypeValue="3"
   solutionTypeString="primal"
   solutionStatusValue="101"
   solutionStatusString="integer optimal solution"
   solutionMethodString="mip"
   primalFeasible="1"
   dualFeasible="1"
   MIPNodes="0"
   MIPIterations="15"
   writeLevel="3"/>
 <quality
   epInt="1.0000000000000001e-05"
   epRHS="9.9999999999999995e-07"
   maxIntInfeas="0"
   maxPrimalInfeas="0"
   maxX="1"
   maxSlack="1"/>
 <variables>
  <variable name="Y(1,35)" index="34" value="1"/>
  <variable name="Y(6,7)" index="641" value="1"/>
  <variable name="Y(53,59)" index="6662" value="1"/>
  <variable name="Y(61,2)" index="7621" value="1"/>
  <variable name="Y(94,60)" index="11870" value="1"/>
  <variable name="Y(229,6)" index="28961" value="1"/>
  <variable name="Y(247,13)" index="31254" value="1"/>
  <variable name="Y(283,55)" index="35868" value="1"/>
  <variable name="Y(395,56)" index="50093" value="1"/>
  <variable name="Y(471,31)" index="59720" value="1"/>
  <variable name="Y(557,27)" index="70638" value="1"/>
  <variable name="Y(650,52)" index="82474" value="1"/>
  <variable name="Y(802,10)" index="101736" value="1"/>
  <variable name="Y(807,18)" index="102379" value="1"/>
  <variable name="Y(820,38)" index="104050" value="1"/>
  <variable name="Y(872,44)" index="110660" value="1"/>
  <variable name="Y(895,5)" index="113542" value="1"/>
  <variable name="Y(906,21)" index="114955" value="1"/>
  <variable name="Y(931,54)" index="118163" value="1"/>
  <variable name="Y(952,17)" index="120793" value="1"/>
  <variable name="Y(1051,31)" index="133380" value="1"/>
  <variable name="Y(1066,49)" index="135303" value="1"/>
  <variable name="Y(1134,64)" index="143954" value="1"/>
  <variable name="Y(1197,37)" index="151928" value="1"/>
  <variable name="Y(1329,40)" index="168695" value="1"/>
  <variable name="Y(1354,1)" index="171831" value="1"/>
  <variable name="Y(1362,11)" index="172857" value="1"/>
  <variable name="Y(1392,46)" index="176702" value="1"/>
  <variable name="Y(1460,62)" index="185354" value="1"/>
  <variable name="Y(1496,35)" index="189899" value="1"/>
  <variable name="Y(1617,51)" index="205282" value="1"/>
  <variable name="Y(1653,34)" index="209837" value="1"/>
  <variable name="Y(1657,39)" index="210350" value="1"/>
  <variable name="Y(1697,22)" index="215413" value="1"/>
  <variable name="Y(1745,15)" index="221502" value="1"/>
  <variable name="Y(1756,15)" index="222899" value="1"/>
  <variable name="Y(1759,33)" index="223298" value="1"/>
  <variable name="Y(1800,14)" index="228486" value="1"/>
  <variable name="Y(1824,43)" index="231563" value="1"/>
  <variable name="Y(1837,58)" index="233229" value="1"/>
  <variable name="Y(1871,32)" index="237521" value="1"/>
  <variable name="Y(1963,26)" index="249199" value="1"/>
  <variable name="Y(1976,45)" index="250869" value="1"/>
  <variable name="Y(1995,8)" index="253245" value="1"/>
  <variable name="Y(1998,12)" index="253630" value="1"/>
  <variable name="Y(2012,30)" index="255426" value="1"/>
  <variable name="Y(2018,36)" index="256194" value="1"/>
  <variable name="Y(2043,66)" index="259399" value="1"/>
  <variable name="Y(2060,19)" index="261511" value="1"/>
  <variable name="Y(2113,20)" index="268243" value="1"/>
  <variable name="Y(2116,25)" index="268629" value="1"/>
  <variable name="Y(2203,3)" index="279656" value="1"/>
  <variable name="Y(2291,50)" index="290879" value="1"/>
  <variable name="Y(2296,63)" index="291527" value="1"/>
  <variable name="Y(2332,42)" index="296078" value="1"/>
  <variable name="Y(2402,67)" index="304993" value="1"/>
  <variable name="Y(2428,41)" index="308269" value="1"/>
  <variable name="Y(2450,62)" index="311084" value="1"/>
  <variable name="Y(2483,47)" index="315260" value="1"/>
  <variable name="Y(2513,29)" index="319052" value="1"/>
  <variable name="Y(2520,32)" index="319944" value="1"/>
  <variable name="Y(2534,53)" index="321743" value="1"/>
  <variable name="Y(2590,48)" index="328850" value="1"/>
  <variable name="Y(2598,57)" index="329875" value="1"/>
  <variable name="Y(2609,4)" index="331219" value="1"/>
  <variable name="Y(2615,16)" index="331993" value="1"/>
  <variable name="Y(2652,65)" index="336741" value="1"/>
  <variable name="X(1,8,1)" index="336931" value="1"/>
  <variable name="X(1,68,1354)" index="340937" value="1"/>
  <variable name="X(2,63,2296)" index="344532" value="1"/>
  <variable name="X(2,64,1134)" index="346023" value="1"/>
  <variable name="X(2,69,61)" index="347603" value="1"/>
  <variable name="X(3,4,2609)" index="352804" value="1"/>
  <variable name="X(3,53,2534)" index="355382" value="1"/>
  <variable name="X(3,58,2483)" index="357984" value="1"/>
  <variable name="X(3,59,53)" index="358207" value="1"/>
  <variable name="X(3,60,94)" index="360901" value="1"/>
  <variable name="X(3,70,2203)" index="365663" value="1"/>
  <variable name="X(4,3,94)" index="366207" value="1"/>
  <variable name="X(4,71,2609)" index="371375" value="1"/>
  <variable name="X(5,6,229)" index="371648" value="1"/>
  <variable name="X(5,8,1995)" index="376067" value="1"/>
  <variable name="X(5,11,1134)" index="377859" value="1"/>
  <variable name="X(5,12,2513)" index="381891" value="1"/>
  <variable name="X(5,46,1392)" index="383423" value="1"/>
  <variable name="X(5,72,895)" index="385579" value="1"/>
  <variable name="X(6,5,1995)" index="389332" value="1"/>
  <variable name="X(6,49,229)" index="390219" value="1"/>
  <variable name="X(7,74,6)" index="392649" value="1"/>
  <variable name="X(8,1,1354)" index="396650" value="1"/>
  <variable name="X(8,5,1392)" index="399341" value="1"/>
  <variable name="X(8,35,1)" index="400603" value="1"/>
  <variable name="X(8,75,1995)" index="405250" value="1"/>
  <variable name="X(9,46,229)" index="406137" value="1"/>
  <variable name="X(10,13,247)" index="408808" value="1"/>
  <variable name="X(10,27,557)" index="411771" value="1"/>
  <variable name="X(10,33,1051)" index="414918" value="1"/>
  <variable name="X(10,77,802)" index="417322" value="1"/>
  <variable name="X(11,5,2513)" index="421686" value="1"/>
  <variable name="X(11,63,1134)" index="422960" value="1"/>
  <variable name="X(11,78,1362)" index="425841" value="1"/>
  <variable name="X(12,5,1134)" index="428266" value="1"/>
  <variable name="X(12,15,2513)" index="432298" value="1"/>
  <variable name="X(12,56,1066)" index="433504" value="1"/>
  <variable name="X(12,79,1998)" index="437089" value="1"/>
  <variable name="X(13,10,557)" index="438301" value="1"/>
  <variable name="X(13,16,1800)" index="442197" value="1"/>
  <variable name="X(13,80,247)" index="443297" value="1"/>
  <variable name="X(14,16,471)" index="446174" value="1"/>
  <variable name="X(14,81,1800)" index="450156" value="1"/>
  <variable name="X(15,12,1134)" index="452143" value="1"/>
  <variable name="X(15,30,1756)" index="455418" value="1"/>
  <variable name="X(15,31,2513)" index="458828" value="1"/>
  <variable name="X(15,82,1745)" index="460713" value="1"/>
  <variable name="X(16,13,557)" index="462178" value="1"/>
  <variable name="X(16,14,1800)" index="466074" value="1"/>
  <variable name="X(16,29,471)" index="467398" value="1"/>
  <variable name="X(16,83,2615)" index="472195" value="1"/>
  <variable name="X(17,18,2428)" index="474661" value="1"/>
  <variable name="X(17,26,2116)" index="477002" value="1"/>
  <variable name="X(17,50,1837)" index="479376" value="1"/>
  <variable name="X(17,84,952)" index="481144" value="1"/>
  <variable name="X(18,17,1837)" index="484682" value="1"/>
  <variable name="X(18,39,1657)" index="487155" value="1"/>
  <variable name="X(18,42,1976)" index="490127" value="1"/>
  <variable name="X(18,43,2428)" index="493232" value="1"/>
  <variable name="X(18,85,807)" index="494264" value="1"/>
  <variable name="X(19,20,1963)" index="498073" value="1"/>
  <variable name="X(19,48,931)" index="499694" value="1"/>
  <variable name="X(19,86,2060)" index="503476" value="1"/>
  <variable name="X(20,19,2060)" index="506129" value="1"/>
  <variable name="X(20,21,1963)" index="508685" value="1"/>
  <variable name="X(20,87,2113)" index="511488" value="1"/>
  <variable name="X(21,20,2113)" index="514141" value="1"/>
  <variable name="X(21,25,1963)" index="516644" value="1"/>
  <variable name="X(21,88,906)" index="518240" value="1"/>
  <variable name="X(22,24,1329)" index="521316" value="1"/>
  <variable name="X(22,34,1653)" index="524293" value="1"/>
  <variable name="X(22,89,1697)" index="526990" value="1"/>
  <variable name="X(23,34,820)" index="528766" value="1"/>
  <variable name="X(24,22,1653)" index="532252" value="1"/>
  <variable name="X(24,41,1329)" index="534581" value="1"/>
  <variable name="X(25,21,906)" index="536811" value="1"/>
  <variable name="X(25,26,1963)" index="540521" value="1"/>
  <variable name="X(25,92,2116)" index="543327" value="1"/>
  <variable name="X(26,17,952)" index="544816" value="1"/>
  <variable name="X(26,25,2116)" index="548633" value="1"/>
  <variable name="X(26,93,1963)" index="551133" value="1"/>
  <variable name="X(27,10,1051)" index="552874" value="1"/>
  <variable name="X(27,94,557)" index="555033" value="1"/>
  <variable name="X(28,27,1051)" index="558180" value="1"/>
  <variable name="X(29,16,2615)" index="562397" value="1"/>
  <variable name="X(29,31,471)" index="562906" value="1"/>
  <variable name="X(29,96,2513)" index="567601" value="1"/>
  <variable name="X(30,15,1134)" index="568875" value="1"/>
  <variable name="X(30,97,2012)" index="572406" value="1"/>
  <variable name="X(31,15,1745)" index="574792" value="1"/>
  <variable name="X(31,29,2513)" index="578213" value="1"/>
  <variable name="X(31,42,2332)" index="580685" value="1"/>
  <variable name="X(31,44,471)" index="581477" value="1"/>
  <variable name="X(31,98,1051)" index="584710" value="1"/>
  <variable name="X(32,36,2520)" index="588832" value="1"/>
  <variable name="X(32,37,1197)" index="590162" value="1"/>
  <variable name="X(32,63,1460)" index="593078" value="1"/>
  <variable name="X(32,99,1871)" index="596142" value="1"/>
  <variable name="X(33,10,802)" index="597726" value="1"/>
  <variable name="X(33,42,1051)" index="600628" value="1"/>
  <variable name="X(33,43,1824)" index="604054" value="1"/>
  <variable name="X(33,45,872)" index="605755" value="1"/>
  <variable name="X(33,100,1759)" index="609295" value="1"/>
  <variable name="X(34,22,1697)" index="611886" value="1"/>
  <variable name="X(34,38,820)" index="613662" value="1"/>
  <variable name="X(34,101,1653)" index="617148" value="1"/>
  <variable name="X(35,7,6)" index="618154" value="1"/>
  <variable name="X(35,8,1392)" index="622193" value="1"/>
  <variable name="X(35,36,2018)" index="625472" value="1"/>
  <variable name="X(35,63,1)" index="626108" value="1"/>
  <variable name="X(35,102,1496)" index="630256" value="1"/>
  <variable name="X(36,32,1460)" index="632873" value="1"/>
  <variable name="X(36,35,1496)" index="635562" value="1"/>
  <variable name="X(36,103,2018)" index="638737" value="1"/>
  <variable name="X(37,32,1871)" index="641243" value="1"/>
  <variable name="X(37,36,1496)" index="643521" value="1"/>
  <variable name="X(37,46,1197)" index="645875" value="1"/>
  <variable name="X(38,34,1697)" index="649028" value="1"/>
  <variable name="X(38,39,807)" index="650791" value="1"/>
  <variable name="X(38,105,820)" index="653457" value="1"/>
  <variable name="X(39,18,807)" index="656097" value="1"/>
  <variable name="X(39,38,1697)" index="659640" value="1"/>
  <variable name="X(39,106,1657)" index="662253" value="1"/>
  <variable name="X(40,41,2428)" index="665677" value="1"/>
  <variable name="X(40,43,1657)" index="667559" value="1"/>
  <variable name="X(40,107,1329)" index="669884" value="1"/>
  <variable name="X(41,24,1653)" index="672861" value="1"/>
  <variable name="X(41,40,1329)" index="675190" value="1"/>
  <variable name="X(41,108,2428)" index="678942" value="1"/>
  <variable name="X(42,18,1837)" index="681004" value="1"/>
  <variable name="X(42,31,1051)" index="682871" value="1"/>
  <variable name="X(42,33,802)" index="685275" value="1"/>
  <variable name="X(42,45,1976)" index="689102" value="1"/>
  <variable name="X(42,109,2332)" index="692111" value="1"/>
  <variable name="X(43,18,1657)" index="694089" value="1"/>
  <variable name="X(43,33,872)" index="695957" value="1"/>
  <variable name="X(43,40,2428)" index="700166" value="1"/>
  <variable name="X(43,110,1824)" index="702215" value="1"/>
  <variable name="X(44,31,1745)" index="704789" value="1"/>
  <variable name="X(44,45,1759)" index="707456" value="1"/>
  <variable name="X(44,111,872)" index="709222" value="1"/>
  <variable name="X(45,33,1759)" index="712762" value="1"/>
  <variable name="X(45,42,1837)" index="715493" value="1"/>
  <variable name="X(45,44,872)" index="717181" value="1"/>
  <variable name="X(45,112,1976)" index="720938" value="1"/>
  <variable name="X(46,5,229)" index="721844" value="1"/>
  <variable name="X(46,37,1871)" index="726139" value="1"/>
  <variable name="X(46,113,1392)" index="728313" value="1"/>
  <variable name="X(47,52,2291)" index="731865" value="1"/>
  <variable name="X(47,55,283)" index="732510" value="1"/>
  <variable name="X(47,114,2483)" index="737363" value="1"/>
  <variable name="X(48,19,1963)" index="739496" value="1"/>
  <variable name="X(48,54,931)" index="741117" value="1"/>
  <variable name="X(48,115,2590)" index="745429" value="1"/>
  <variable name="X(49,6,1995)" index="747487" value="1"/>
  <variable name="X(49,56,1998)" index="750143" value="1"/>
  <variable name="X(49,116,1066)" index="751864" value="1"/>
  <variable name="X(50,17,2428)" index="755879" value="1"/>
  <variable name="X(50,51,1617)" index="757721" value="1"/>
  <variable name="X(50,64,1837)" index="760594" value="1"/>
  <variable name="X(50,117,2291)" index="763701" value="1"/>
  <variable name="X(51,50,2291)" index="766354" value="1"/>
  <variable name="X(51,52,650)" index="767366" value="1"/>
  <variable name="X(51,118,1617)" index="770986" value="1"/>
  <variable name="X(52,47,283)" index="772305" value="1"/>
  <variable name="X(52,51,2291)" index="776966" value="1"/>
  <variable name="X(52,119,650)" index="777978" value="1"/>
  <variable name="X(53,3,2203)" index="782184" value="1"/>
  <variable name="X(53,120,2534)" index="785168" value="1"/>
  <variable name="X(54,48,2590)" index="787877" value="1"/>
  <variable name="X(54,55,2483)" index="790423" value="1"/>
  <variable name="X(54,67,2296)" index="792889" value="1"/>
  <variable name="X(54,121,931)" index="794177" value="1"/>
  <variable name="X(55,47,2483)" index="798382" value="1"/>
  <variable name="X(55,54,2296)" index="800848" value="1"/>
  <variable name="X(55,122,283)" index="801488" value="1"/>
  <variable name="X(56,12,1998)" index="805856" value="1"/>
  <variable name="X(56,30,2012)" index="808523" value="1"/>
  <variable name="X(56,49,1066)" index="810230" value="1"/>
  <variable name="X(56,123,395)" index="812212" value="1"/>
  <variable name="X(57,59,2534)" index="817004" value="1"/>
  <variable name="X(57,62,6)" index="817129" value="1"/>
  <variable name="X(57,124,2598)" index="822374" value="1"/>
  <variable name="X(58,3,2609)" index="825038" value="1"/>
  <variable name="X(58,66,2483)" index="827565" value="1"/>
  <variable name="X(58,125,1837)" index="829572" value="1"/>
  <variable name="X(59,3,2534)" index="832922" value="1"/>
  <variable name="X(59,57,2598)" index="835639" value="1"/>
  <variable name="X(59,66,2043)" index="837737" value="1"/>
  <variable name="X(59,126,53)" index="838400" value="1"/>
  <variable name="X(60,3,2483)" index="843483" value="1"/>
  <variable name="X(60,61,2450)" index="846103" value="1"/>
  <variable name="X(60,127,94)" index="846400" value="1"/>
  <variable name="X(61,60,2483)" index="851442" value="1"/>
  <variable name="X(61,62,2450)" index="854062" value="1"/>
  <variable name="X(62,57,2534)" index="856799" value="1"/>
  <variable name="X(62,61,1460)" index="858378" value="1"/>
  <variable name="X(62,63,6)" index="859577" value="1"/>
  <variable name="X(62,129,2450)" index="864674" value="1"/>
  <variable name="X(63,2,1134)" index="866011" value="1"/>
  <variable name="X(63,11,1362)" index="868892" value="1"/>
  <variable name="X(63,32,2520)" index="872703" value="1"/>
  <variable name="X(63,35,6)" index="872842" value="1"/>
  <variable name="X(63,62,1460)" index="876949" value="1"/>
  <variable name="X(63,130,2296)" index="880438" value="1"/>
  <variable name="X(64,2,2296)" index="883091" value="1"/>
  <variable name="X(64,50,2428)" index="885876" value="1"/>
  <variable name="X(64,65,1837)" index="887938" value="1"/>
  <variable name="X(64,131,1134)" index="889888" value="1"/>
  <variable name="X(65,64,2296)" index="893703" value="1"/>
  <variable name="X(65,67,1837)" index="895897" value="1"/>
  <variable name="X(65,132,2652)" index="899365" value="1"/>
  <variable name="X(66,58,1837)" index="901203" value="1"/>
  <variable name="X(66,59,2598)" index="904617" value="1"/>
  <variable name="X(66,67,2483)" index="907155" value="1"/>
  <variable name="X(66,133,2043)" index="909368" value="1"/>
  <variable name="X(67,54,2483)" index="912461" value="1"/>
  <variable name="X(67,65,2296)" index="914927" value="1"/>
  <variable name="X(67,66,1837)" index="917121" value="1"/>
  <variable name="X(67,134,2402)" index="920339" value="1"/>
 </variables>
</CPLEXSolution>
